NAME : n40w140.002.459.tour
COMMENT : Length = 459
COMMENT : Found by LKH [Keld Helsgaun] Tue May  2 05:47:17 2017
TYPE : TOUR
DIMENSION : 41
TOUR_SECTION
1
6
36
12
4
20
33
13
16
8
23
35
37
19
15
2
40
26
27
31
17
3
24
25
30
18
14
28
34
11
22
29
7
5
9
32
39
41
38
10
21
-1
EOF
